letting n be 12
letting exclusions be [
]
letting assignments be [
[2, 3, 1, 5]
,
[5, 4, 2, 2]
,
[6, 3, 1, 7]
,
[4, 5, 2, 4]
,
[7, 3, 2, 9]
,
[5, 5, 2, 12]
,
[3, 3, 2, 11]
,
[4, 2, 1, 11]
,
[7, 6, 1, 8]
,
[4, 6, 1, 1]
]
